Maximize
  - 15 x0 + 46 x1 - 42 x2 - 16 x3 - 33 x4 + 34 x5 + 39 x6 + 10 x7 + 0 x8
   - 48 x9 - 46 x10 - 34 x11 - 15 x12 - 31 x13 - 5 x14 - 31 x15 + 49 x16
   - 9 x17 - 6 x18 - 31 x19 + 18 x20 + 4 x21 + 19 x22 - 9 x23 + 30 x24
   + 8 x25 - 40 x26 + 46 x27 - 7 x28 + 23 x29 + 34 x30 + 45 x31 - 4 x32
   - 6 x33 - 14 x34 + 48 x35 + 13 x36 - 26 x37 - 16 x38 + 25 x39 + [
   - 41 x0 ^2 - 50 x0 * x1 - 12 x0 * x2 - 30 x0 * x3 - 22 x0 * x4
   - 40 x0 * x5 + 52 x0 * x6 - 58 x0 * x7 - 48 x0 * x8 - 30 x0 * x9
   - 8 x0 * x10 + 24 x0 * x11 + 80 x0 * x12 + 70 x0 * x13 + 78 x0 * x14
   + 32 x0 * x15 - 2 x0 * x16 + 76 x0 * x17 - 54 x0 * x18 - 8 x0 * x19
   + 68 x0 * x20 - 84 x0 * x21 - 14 x0 * x23 + 40 x0 * x24 + 44 x0 * x25
   - 14 x0 * x26 - 80 x0 * x27 + 30 x0 * x28 + 40 x0 * x29 + 88 x0 * x30
   - 64 x0 * x31 - 8 x0 * x32 - 78 x0 * x33 + 32 x0 * x34 - 12 x0 * x35
   + 24 x0 * x36 - 66 x0 * x37 + 54 x0 * x38 + 68 x0 * x39 + 14 x1 ^2
   + 78 x1 * x2 + 28 x1 * x3 - 30 x1 * x4 + 64 x1 * x5 + 72 x1 * x6
   - 62 x1 * x7 + 52 x1 * x8 + 54 x1 * x9 - 56 x1 * x10 + 24 x1 * x11
   - 18 x1 * x12 + 82 x1 * x13 - 56 x1 * x14 + 72 x1 * x15 - 10 x1 * x16
   + 14 x1 * x17 + 54 x1 * x18 - 86 x1 * x19 + 32 x1 * x20 - 98 x1 * x21
   - 96 x1 * x22 + 70 x1 * x23 + 30 x1 * x24 - 84 x1 * x26 + 44 x1 * x27
   - 60 x1 * x28 - 46 x1 * x29 + 86 x1 * x30 - 92 x1 * x31 + 12 x1 * x32
   - 6 x1 * x33 - 18 x1 * x34 - 86 x1 * x35 + 60 x1 * x36 - 74 x1 * x37
   + 32 x1 * x38 + 58 x1 * x39 - 47 x2 ^2 + 14 x2 * x3 + 58 x2 * x4
   + 78 x2 * x5 + 68 x2 * x6 + 60 x2 * x7 + 32 x2 * x8 - 14 x2 * x9
   + 42 x2 * x10 - 46 x2 * x11 + 24 x2 * x13 - 64 x2 * x14 + 10 x2 * x15
   + 34 x2 * x16 - 90 x2 * x17 - 84 x2 * x18 - 28 x2 * x19 - 54 x2 * x20
   + 96 x2 * x21 + 34 x2 * x22 + 58 x2 * x23 - 8 x2 * x24 + 16 x2 * x25
   + 4 x2 * x26 - 34 x2 * x27 + 10 x2 * x28 + 82 x2 * x29 - 94 x2 * x30
   + 6 x2 * x31 - 28 x2 * x32 + 60 x2 * x33 - 14 x2 * x34 - 58 x2 * x35
   - 48 x2 * x36 + 62 x2 * x37 + 22 x2 * x38 + 58 x2 * x39 + 39 x3 ^2
   - 46 x3 * x4 + 48 x3 * x5 + 20 x3 * x6 - 88 x3 * x7 + 94 x3 * x8
   - 24 x3 * x9 + 18 x3 * x10 + 22 x3 * x11 - 58 x3 * x12 - 30 x3 * x13
   + 38 x3 * x14 + 86 x3 * x15 + 66 x3 * x16 - 44 x3 * x17 + 24 x3 * x18
   + 12 x3 * x19 + 36 x3 * x20 - 4 x3 * x21 - 64 x3 * x22 - 70 x3 * x23
   - 88 x3 * x24 - 12 x3 * x25 + 68 x3 * x26 - 82 x3 * x27 - 24 x3 * x28
   - 98 x3 * x29 - 4 x3 * x30 + 4 x3 * x31 + 44 x3 * x32 + 98 x3 * x33
   + 28 x3 * x34 - 40 x3 * x35 - 28 x3 * x36 + 70 x3 * x37 - 64 x3 * x38
   + 44 x3 * x39 - 14 x4 ^2 - 24 x4 * x5 + 50 x4 * x6 + 10 x4 * x7
   + 76 x4 * x8 + 38 x4 * x9 + 88 x4 * x10 - 78 x4 * x11 + 20 x4 * x12
   - 34 x4 * x13 - 28 x4 * x14 - 6 x4 * x15 - 46 x4 * x16 + 34 x4 * x17
   + 34 x4 * x18 - 4 x4 * x19 + 90 x4 * x20 + 30 x4 * x21 + 6 x4 * x22
   + 40 x4 * x23 - 96 x4 * x24 + 70 x4 * x25 - 46 x4 * x26 + 58 x4 * x27
   - 28 x4 * x28 - 28 x4 * x29 + 40 x4 * x30 + 14 x4 * x31 - 38 x4 * x32
   - 12 x4 * x33 - 82 x4 * x34 + 50 x4 * x35 - 42 x4 * x36 + 20 x4 * x37
   - 6 x4 * x38 + 98 x4 * x39 + 18 x5 ^2 - 52 x5 * x6 + 14 x5 * x7
   + 96 x5 * x8 + 54 x5 * x9 + 12 x5 * x10 + 92 x5 * x11 + 86 x5 * x12
   + 10 x5 * x13 - 84 x5 * x14 - 86 x5 * x15 + 30 x5 * x16 - 14 x5 * x17
   + 72 x5 * x18 + 20 x5 * x19 - 62 x5 * x20 + 22 x5 * x21 + 60 x5 * x22
   - 92 x5 * x23 - 60 x5 * x24 - 40 x5 * x25 + 30 x5 * x26 + 44 x5 * x27
   + 54 x5 * x28 + 80 x5 * x29 - 16 x5 * x30 + 62 x5 * x31 + 62 x5 * x32
   + 60 x5 * x33 + 68 x5 * x34 + 10 x5 * x35 + 80 x5 * x36 - 26 x5 * x37
   - 84 x5 * x38 - 88 x5 * x39 - 3 x6 ^2 + 28 x6 * x7 - 94 x6 * x8
   + 52 x6 * x9 - 58 x6 * x10 - 44 x6 * x11 + 54 x6 * x12 + 12 x6 * x13
   + 58 x6 * x14 - 88 x6 * x16 - 40 x6 * x17 + 66 x6 * x18 + 64 x6 * x19
   + 58 x6 * x20 + 56 x6 * x21 - 16 x6 * x22 - 2 x6 * x23 - 48 x6 * x24
   - 26 x6 * x25 - 94 x6 * x26 + 26 x6 * x27 - 34 x6 * x28 + 28 x6 * x29
   - 70 x6 * x30 + 92 x6 * x31 - 14 x6 * x32 + 18 x6 * x33 + 94 x6 * x34
   - 66 x6 * x35 + 78 x6 * x36 + 68 x6 * x37 - 86 x6 * x38 - 22 x6 * x39
   - 30 x7 ^2 + 88 x7 * x8 - 88 x7 * x9 + 70 x7 * x10 - 32 x7 * x11
   + 76 x7 * x12 + 74 x7 * x13 - 96 x7 * x14 + 6 x7 * x15 - 20 x7 * x16
   + 86 x7 * x17 + 58 x7 * x18 + 64 x7 * x19 - 80 x7 * x21 - 22 x7 * x22
   - 68 x7 * x23 - 26 x7 * x24 - 92 x7 * x25 + 2 x7 * x26 + 6 x7 * x27
   - 52 x7 * x28 - 4 x7 * x29 - 70 x7 * x30 - 62 x7 * x31 + 32 x7 * x32
   - 36 x7 * x33 - 66 x7 * x34 + 82 x7 * x35 - 88 x7 * x36 + 96 x7 * x37
   + 18 x7 * x38 + 26 x7 * x39 - 28 x8 ^2 - 86 x8 * x9 - 56 x8 * x10
   + 26 x8 * x11 - 18 x8 * x12 + 62 x8 * x13 + 84 x8 * x15 + 16 x8 * x16
   - 72 x8 * x17 + 22 x8 * x18 - 74 x8 * x19 - 92 x8 * x20 + 90 x8 * x21
   + 80 x8 * x22 - 38 x8 * x23 - 52 x8 * x24 - 86 x8 * x25 - 98 x8 * x26
   + 20 x8 * x27 - 82 x8 * x28 + 22 x8 * x29 + 34 x8 * x30 - 66 x8 * x31
   - 98 x8 * x32 - 80 x8 * x33 - 92 x8 * x34 + 12 x8 * x35 - 50 x8 * x36
   + 22 x8 * x37 - 50 x8 * x38 - 80 x8 * x39 + 11 x9 ^2 - 20 x9 * x10
   + 74 x9 * x11 - 96 x9 * x12 + 60 x9 * x13 + 82 x9 * x14 + 4 x9 * x15
   + 16 x9 * x16 - 66 x9 * x17 - 98 x9 * x18 + 46 x9 * x19 + 58 x9 * x20
   + 78 x9 * x21 - 40 x9 * x22 + 42 x9 * x23 - 16 x9 * x24 + 58 x9 * x25
   - 38 x9 * x26 - 58 x9 * x27 + 60 x9 * x28 - 10 x9 * x29 - 22 x9 * x30
   - 66 x9 * x31 + 52 x9 * x32 - 78 x9 * x33 + 98 x9 * x34 - 44 x9 * x35
   + 88 x9 * x36 + 50 x9 * x37 + 34 x9 * x38 - 52 x9 * x39 + 37 x10 ^2
   + 98 x10 * x11 - 44 x10 * x12 - 86 x10 * x13 + 14 x10 * x14
   - 2 x10 * x15 - 44 x10 * x16 - 36 x10 * x17 + 30 x10 * x18
   - 80 x10 * x19 - 18 x10 * x20 - 38 x10 * x21 - 54 x10 * x22
   + 88 x10 * x23 - 72 x10 * x24 + 4 x10 * x25 - 54 x10 * x26
   - 42 x10 * x27 - 90 x10 * x28 - 30 x10 * x29 - 76 x10 * x30
   + 70 x10 * x31 + 38 x10 * x32 + 96 x10 * x33 - 58 x10 * x34
   - 36 x10 * x35 - 64 x10 * x36 - 46 x10 * x37 + 98 x10 * x38
   + 76 x10 * x39 - 43 x11 ^2 + 86 x11 * x12 + 30 x11 * x13 - 34 x11 * x14
   - 92 x11 * x15 + 80 x11 * x16 - 84 x11 * x17 - 80 x11 * x18
   - 20 x11 * x19 + 72 x11 * x20 + 62 x11 * x21 + 84 x11 * x22
   - 10 x11 * x23 + 66 x11 * x24 - 62 x11 * x25 - 86 x11 * x26
   - 18 x11 * x27 + 90 x11 * x28 + 10 x11 * x29 - 84 x11 * x30
   + 6 x11 * x31 - 78 x11 * x32 - 64 x11 * x33 - 8 x11 * x34 - 36 x11 * x35
   - 24 x11 * x36 - 14 x11 * x37 + 56 x11 * x38 - 82 x11 * x39 - 41 x12 ^2
   + 32 x12 * x13 + 44 x12 * x15 + 66 x12 * x16 - 12 x12 * x17
   + 96 x12 * x18 + 94 x12 * x19 + 42 x12 * x20 + 12 x12 * x21
   - 80 x12 * x22 - 64 x12 * x23 + 62 x12 * x24 - 12 x12 * x25
   - 42 x12 * x26 + 68 x12 * x27 + 68 x12 * x28 - 28 x12 * x29
   - 52 x12 * x30 + 28 x12 * x31 + 80 x12 * x32 - 76 x12 * x33
   - 66 x12 * x34 + 36 x12 * x35 - 6 x12 * x36 - 10 x12 * x37
   + 46 x12 * x38 - 18 x12 * x39 + 33 x13 ^2 + 52 x13 * x14 - 52 x13 * x15
   + 42 x13 * x16 - 98 x13 * x17 - 46 x13 * x18 - 14 x13 * x19
   - 10 x13 * x20 - 6 x13 * x21 + 78 x13 * x22 - 58 x13 * x23
   - 16 x13 * x24 - 12 x13 * x25 + 78 x13 * x26 - 64 x13 * x27
   - 42 x13 * x28 - 36 x13 * x29 + 80 x13 * x30 + 2 x13 * x31 + 2 x13 * x32
   + 28 x13 * x33 + 28 x13 * x34 - 8 x13 * x35 + 20 x13 * x37
   + 18 x13 * x38 + 50 x13 * x39 - 23 x14 ^2 + 2 x14 * x15 + 40 x14 * x16
   + 56 x14 * x17 + 62 x14 * x18 - 52 x14 * x19 + 46 x14 * x20
   - 98 x14 * x21 + 14 x14 * x22 - 30 x14 * x23 + 74 x14 * x25
   + 18 x14 * x26 - 84 x14 * x27 + 22 x14 * x28 + 76 x14 * x29
   - 90 x14 * x30 - 62 x14 * x31 + 86 x14 * x32 + 36 x14 * x33
   - 48 x14 * x34 + 62 x14 * x35 + 72 x14 * x36 + 78 x14 * x37
   - 44 x14 * x38 + 6 x14 * x39 + 35 x15 ^2 - 52 x15 * x16 - 24 x15 * x17
   + 78 x15 * x18 + 94 x15 * x19 - 14 x15 * x20 + 90 x15 * x21
   + 46 x15 * x22 + 54 x15 * x23 + 74 x15 * x24 + 78 x15 * x26
   - 70 x15 * x27 - 96 x15 * x28 - 56 x15 * x29 - 82 x15 * x30
   - 30 x15 * x31 + 84 x15 * x32 - 2 x15 * x33 + 30 x15 * x34
   - 42 x15 * x35 + 38 x15 * x36 - 26 x15 * x37 + 26 x15 * x38
   - 88 x15 * x39 + 40 x16 ^2 + 52 x16 * x17 - 28 x16 * x18 - 64 x16 * x19
   - 8 x16 * x20 + 84 x16 * x21 + 44 x16 * x22 - 2 x16 * x23 + 94 x16 * x24
   + 66 x16 * x25 - 22 x16 * x26 + 38 x16 * x27 - 10 x16 * x28
   - 74 x16 * x29 - 20 x16 * x30 - 12 x16 * x31 - 94 x16 * x32
   + 18 x16 * x33 - 60 x16 * x34 - 64 x16 * x35 + 74 x16 * x36
   - 78 x16 * x37 + 12 x16 * x38 + 24 x16 * x39 - 16 x17 ^2 + 72 x17 * x18
   + 4 x17 * x19 + 44 x17 * x20 + 56 x17 * x21 + 60 x17 * x22
   + 56 x17 * x23 - 32 x17 * x24 + 86 x17 * x25 + 88 x17 * x26
   - 50 x17 * x27 - 32 x17 * x28 + 68 x17 * x29 - 84 x17 * x30
   + 84 x17 * x31 + 40 x17 * x32 - 94 x17 * x33 + 20 x17 * x34
   + 8 x17 * x35 - 92 x17 * x36 + 94 x17 * x37 - 56 x17 * x38
   - 94 x17 * x39 + 7 x18 ^2 + 42 x18 * x19 - 50 x18 * x20 + 52 x18 * x21
   - 2 x18 * x22 + 56 x18 * x23 + 40 x18 * x24 + 42 x18 * x25
   - 90 x18 * x26 - 34 x18 * x27 + 66 x18 * x29 + 92 x18 * x30
   + 14 x18 * x31 - 38 x18 * x32 - 44 x18 * x33 + 34 x18 * x34
   + 26 x18 * x35 - 28 x18 * x36 + 46 x18 * x37 + 52 x18 * x38
   + 36 x18 * x39 + x19 ^2 - 58 x19 * x20 + 4 x19 * x21 - 76 x19 * x22
   - 28 x19 * x23 - 52 x19 * x24 - 48 x19 * x25 - 76 x19 * x26
   + 74 x19 * x27 + 2 x19 * x28 + 64 x19 * x29 - 66 x19 * x30
   - 22 x19 * x31 + 22 x19 * x32 + 82 x19 * x34 + 60 x19 * x35
   + 12 x19 * x36 + 60 x19 * x37 + 32 x19 * x39 + 13 x20 ^2 + 56 x20 * x21
   - 92 x20 * x23 - 78 x20 * x25 - 12 x20 * x26 + 78 x20 * x27
   - 84 x20 * x28 + 36 x20 * x29 + 50 x20 * x30 + 76 x20 * x31
   - 94 x20 * x32 - 10 x20 * x33 - 12 x20 * x34 + 52 x20 * x35
   - 32 x20 * x36 + 20 x20 * x37 - 30 x20 * x38 + 62 x20 * x39 - 34 x21 ^2
   + 96 x21 * x22 - 76 x21 * x23 + 72 x21 * x24 - 46 x21 * x25
   + 38 x21 * x26 - 44 x21 * x27 - 2 x21 * x28 - 74 x21 * x29 - 4 x21 * x30
   - 36 x21 * x31 - 42 x21 * x32 + 96 x21 * x33 + 50 x21 * x34
   - 56 x21 * x35 - 84 x21 * x36 - 62 x21 * x37 - 86 x21 * x38
   + 36 x21 * x39 + 7 x22 ^2 + 96 x22 * x23 - 68 x22 * x24 - 78 x22 * x25
   - 68 x22 * x26 + 80 x22 * x27 + 48 x22 * x28 + 30 x22 * x29
   + 2 x22 * x30 + 62 x22 * x31 - 12 x22 * x32 - 90 x22 * x33
   + 62 x22 * x34 + 12 x22 * x35 - 18 x22 * x36 + 10 x22 * x37
   + 94 x22 * x38 - 50 x22 * x39 + 34 x23 ^2 + 66 x23 * x24 - 82 x23 * x25
   - 54 x23 * x26 + 30 x23 * x27 + 40 x23 * x28 + 52 x23 * x29
   + 44 x23 * x30 + 74 x23 * x31 - 24 x23 * x32 - 48 x23 * x33
   - 30 x23 * x34 - 54 x23 * x35 + 68 x23 * x36 - 76 x23 * x37
   - 44 x23 * x38 + 68 x23 * x39 - 3 x24 ^2 - 84 x24 * x25 + 64 x24 * x26
   + 46 x24 * x27 - 50 x24 * x28 - 78 x24 * x29 + 56 x24 * x32
   + 74 x24 * x33 + 80 x24 * x34 - 72 x24 * x35 - 68 x24 * x36
   + 66 x24 * x37 + 90 x24 * x38 - 68 x24 * x39 - 8 x25 ^2 + 74 x25 * x26
   + 48 x25 * x27 - 16 x25 * x28 - 8 x25 * x29 + 4 x25 * x30 + 32 x25 * x31
   - 42 x25 * x32 - 34 x25 * x33 - 78 x25 * x34 + 64 x25 * x35
   - 68 x25 * x36 + 46 x25 * x37 - 86 x25 * x38 + 78 x25 * x39 + 42 x26 ^2
   - 92 x26 * x27 - 24 x26 * x28 - 56 x26 * x29 - 56 x26 * x30
   + 12 x26 * x31 - 98 x26 * x32 - 42 x26 * x33 - 32 x26 * x34
   + 74 x26 * x35 - 84 x26 * x36 - 18 x26 * x37 + 98 x26 * x38
   + 36 x26 * x39 + 42 x27 ^2 + 52 x27 * x28 - 66 x27 * x29 + 86 x27 * x30
   - 96 x27 * x31 - 48 x27 * x32 + 66 x27 * x33 - 52 x27 * x34
   + 22 x27 * x35 + 52 x27 * x36 + 2 x27 * x37 + 54 x27 * x38
   + 48 x27 * x39 + 10 x28 ^2 - 54 x28 * x29 + 66 x28 * x30 + 78 x28 * x31
   - 14 x28 * x32 + 8 x28 * x33 - 76 x28 * x34 + 38 x28 * x35
   + 58 x28 * x36 + 78 x28 * x37 + 4 x28 * x38 + 64 x28 * x39 - 20 x29 ^2
   - 20 x29 * x30 + 72 x29 * x31 - 94 x29 * x32 + 16 x29 * x33
   - 10 x29 * x34 + 40 x29 * x35 + 98 x29 * x36 - 44 x29 * x37
   - 84 x29 * x38 - 92 x29 * x39 - 13 x30 ^2 - 70 x30 * x31 - 30 x30 * x32
   - 26 x30 * x33 - 20 x30 * x34 + 90 x30 * x35 - 2 x30 * x36
   - 64 x30 * x37 + 90 x30 * x38 + 78 x30 * x39 - 24 x31 ^2 - 88 x31 * x32
   + 86 x31 * x33 + 60 x31 * x34 + 58 x31 * x35 - 72 x31 * x36
   + 22 x31 * x37 + 98 x31 * x38 + 8 x31 * x39 + 25 x32 ^2 + 34 x32 * x33
   - 48 x32 * x34 + 48 x32 * x35 + 8 x32 * x36 + 94 x32 * x37
   - 46 x32 * x38 - 24 x32 * x39 + 10 x33 ^2 - 42 x33 * x34 - 38 x33 * x35
   - 10 x33 * x36 + 48 x33 * x37 + 22 x33 * x38 + 56 x33 * x39 + 44 x34 ^2
   - 96 x34 * x35 - 98 x34 * x36 - 54 x34 * x37 - 90 x34 * x38
   - 46 x34 * x39 - 25 x35 ^2 + 80 x35 * x36 - 46 x35 * x37 + 56 x35 * x38
   + 12 x35 * x39 - 23 x36 ^2 - 2 x36 * x37 + 38 x36 * x38 - 98 x36 * x39
   - 46 x37 * x38 - 52 x37 * x39 + 21 x38 ^2 - 98 x38 * x39 - 32 x39 ^2
   ] / 2 
Subject To
Bounds
 x0 <= 1
 x1 <= 1
 x2 <= 1
 x3 <= 1
 x4 <= 1
 x5 <= 1
 x6 <= 1
 x7 <= 1
 x8 <= 1
 x9 <= 1
 x10 <= 1
 x11 <= 1
 x12 <= 1
 x13 <= 1
 x14 <= 1
 x15 <= 1
 x16 <= 1
 x17 <= 1
 x18 <= 1
 x19 <= 1
 x20 <= 1
 x21 <= 1
 x22 <= 1
 x23 <= 1
 x24 <= 1
 x25 <= 1
 x26 <= 1
 x27 <= 1
 x28 <= 1
 x29 <= 1
 x30 <= 1
 x31 <= 1
 x32 <= 1
 x33 <= 1
 x34 <= 1
 x35 <= 1
 x36 <= 1
 x37 <= 1
 x38 <= 1
 x39 <= 1
End
